set NODES := 1,2,3,4,5,6;

# Specify the links here
set EDGES := (1,2),(1,3),(2,4),(2,5),(3,4),(3,5),(4,6),(5,6);

# The parameter sd specifies the source and destination of a flow
# with source s and destination d
# sd[s] = 1, sd[d] = -1, otherwise 0 
# In this example, 
# The flow has source = node 1, destination = node 6
param sd default 0 := [*]   
[1]  1
[6] -1;

# The link cost 
param cost := [*,*]
[1,2]	  4
[1,3]	  3
[2,4]	  3
[2,5]	  2
[3,4]	  2
[3,5]	  3
[4,6]	  2
[5,6]	  2;
